\ENCODING=ISO-8859-1
\Problem name: IloCplex

Minimize
 obj1: X_1 + X_2 + X_3 + X_4 + X_5
Subject To
 c1: 4 X_1 >= 50
 c2: 2 X_2 >= 36
 c3: 2 X_3 >= 24
 c4: 2 X_4 >= 8
 c5: X_5 >= 30
Bounds
      X_1 = 13
End
